(set-option :auto-config true)
(declare-const GEN1 Int)
(declare-const GEN2 Int)
(declare-const GEN3 Int)
(declare-const BAV4 Bool)
(declare-const BAV5 Bool)
(declare-const BAV6 Bool)
(declare-const x Int)
(declare-const y Int)
(assert (>= (+ (* x x) (* y y)) GEN1))
(assert (> x GEN2))
(assert (> y GEN3))
(assert (= BAV4 (>= (+ (* x x) (* y y)) GEN1)))
(assert (= BAV5 (> x GEN2)))
(assert (= BAV6 (> y GEN3)))
(check-sat)
(get-model)